805355
67,61,58,82,16,15,83,35,97,42,27,2,3,64,5,85,89,8,53,91,44,55,72,36,50,88,38,76,87,45,86,81,4,66,7,14,39,92,84,73,22,43,24,52,65,54,98,23,11,28,46,34,71,90,59,19,12,17,26,94,40,29,79,51,78,25,95,47,57,33,9,1,70,32,74,37,48,80,99,68,63,13,60,31,62,93,49,6,75,69,41,18,56,10,77,30,96,21,20